p edge 82
e 0 13
e 0 40
e 0 43
e 0 54
e 0 70
e 0 73
e 1 9
e 1 33
e 1 47
e 1 48
e 1 56
e 2 17
e 2 38
e 2 45
e 2 51
e 2 66
e 2 69
e 2 80
e 3 23
e 3 24
e 3 39
e 3 56
e 3 59
e 4 8
e 4 42
e 4 43
e 4 58
e 4 73
e 4 76
e 5 16
e 5 29
e 5 45
e 5 57
e 5 60
e 5 61
e 5 80
e 6 26
e 6 33
e 6 37
e 6 48
e 6 55
e 6 62
e 7 11
e 7 42
e 7 58
e 8 14
e 8 35
e 8 38
e 8 58
e 8 73
e 9 25
e 9 44
e 9 47
e 9 56
e 9 71
e 10 15
e 10 64
e 10 77
e 11 28
e 11 31
e 11 58
e 12 21
e 12 63
e 13 40
e 13 46
e 13 73
e 13 75
e 13 79
e 14 35
e 14 38
e 14 66
e 15 40
e 15 46
e 15 64
e 15 72
e 16 18
e 16 32
e 16 49
e 16 61
e 16 81
e 17 19
e 17 34
e 17 50
e 17 69
e 17 80
e 18 49
e 18 53
e 18 81
e 19 25
e 19 34
e 19 57
e 19 68
e 19 80
e 20 27
e 20 34
e 20 59
e 20 65
e 20 68
e 21 22
e 21 74
e 22 74
e 22 77
e 23 27
e 23 56
e 23 59
e 23 68
e 23 71
e 24 39
e 24 48
e 24 52
e 24 56
e 25 44
e 25 57
e 25 60
e 25 68
e 25 71
e 26 37
e 26 55
e 27 59
e 27 68
e 28 31
e 28 36
e 29 32
e 29 45
e 29 67
e 29 79
e 30 44
e 30 47
e 30 53
e 30 78
e 30 81
e 31 35
e 31 36
e 31 58
e 32 49
e 32 67
e 33 37
e 33 47
e 33 48
e 33 78
e 34 50
e 34 65
e 34 68
e 35 36
e 35 58
e 37 78
e 38 45
e 38 66
e 38 75
e 39 59
e 40 46
e 40 64
e 40 70
e 41 49
e 41 67
e 41 72
e 42 58
e 42 76
e 43 54
e 43 73
e 43 76
e 44 47
e 44 60
e 44 61
e 44 81
e 45 75
e 45 79
e 46 67
e 46 72
e 47 78
e 48 52
e 48 56
e 48 62
e 50 51
e 50 65
e 50 69
e 51 66
e 51 69
e 52 62
e 53 78
e 53 81
e 54 63
e 54 70
e 54 76
e 55 62
e 56 71
e 57 60
e 57 80
e 60 61
e 61 81
e 63 70
e 63 74
e 63 76
e 64 70
e 64 74
e 64 77
e 67 79
e 68 71
e 70 74
e 73 75
e 74 77
e 75 79
c k 4
